54565
39 6 1176
6 36 517
36 4 467
4 34 323
34 23 296
23 19 740
19 49 763
49 37 1180
37 7 368
7 40 891
40 31 362
31 43 676
43 18 1282
18 47 897
47 16 415
16 22 619
22 20 176
20 28 516
28 21 544
21 9 117
9 15 734
15 38 451
38 45 214
45 35 402
35 14 679
14 24 1148
24 30 299
30 0 8318
0 26 4123
26 32 4053
32 41 4807
41 10 1343
10 44 436
44 51 722
51 1 598
1 13 433
13 8 471
8 11 723
11 17 768
17 3 606
3 29 380
29 46 944
46 33 702
33 52 396
52 53 624
53 25 967
25 48 560
48 54 711
54 27 487
27 5 404
5 2 385
2 12 1580
12 42 790
42 50 940
50 39 1042
39 39 0
